&CONTROL
    calculation = 'scf',
    prefix = 'h2o',
    outdir = './tmp/',
    pseudo_dir = './',
    tprnfor = .true.,
    tstress = .true.,
    verbosity = 'high',
    lelfield = .true.,
    dipfield = .true.
/

&SYSTEM
    ibrav = 1,
    celldm(1) = 15.0,
    nat = 3,
    ntyp = 2,
    ecutwfc = 60.0,
    ecutrho = 480.0,
    input_dft = 'PBE',
    london = .true.
/

&ELECTRONS
    conv_thr = 1.0d-10,
    mixing_beta = 0.3
/

ATOMIC_SPECIES
O  15.999  O.pbe-n-kjpaw_psl.1.0.0.UPF
H   1.0079 H.pbe-kjpaw_psl.1.0.0.UPF

ATOMIC_POSITIONS {angstrom}
O  0.0000000000  -0.0077164743   0.0000000000
H  0.7654617919   0.5898582371   0.0000000000
H -0.7654617919   0.5898582371   0.0000000000

K_POINTS automatic
1 1 1 0 0 0


