&CONTROL
    calculation = 'scf',
    prefix = 'o2',
    outdir = './tmp',
    pseudo_dir = './',
    verbosity = 'high',
/
&SYSTEM
    ibrav = 1,
    celldm(1) = 10.0,
    nat = 2,
    ntyp = 1,
    ecutwfc = 50.0,
    ecutrho = 400.0,
    occupations = 'smearing',
    smearing = 'gaussian',
    degauss = 0.02,
    nspin = 2,
    starting_magnetization(1) = 0.5,
/
&ELECTRONS
    conv_thr = 1.0d-8,
    mixing_beta = 0.7,
/
ATOMIC_SPECIES
    O  16.00  O.pbe-n-kjpaw_psl.1.0.0.UPF
ATOMIC_POSITIONS (angstrom)
    O  0.0000  0.0000  0.0000
    O  0.0000  0.0000  1.4000
K_POINTS (automatic)
    6 6 6 1 1 1
