&inputph
  tr2_ph = 1.0d-14,
  prefix = 'ch4',
  outdir = './',
  fildyn = 'ch4.dyn',
  ldisp = .false.,
  nq1 = 1, nq2 = 1, nq3 = 1
/
