&CONTROL
  calculation = 'scf',
  prefix = 'ch4',
  outdir = './',
  pseudo_dir = './'
/

&SYSTEM
  ibrav = 0,
  nat = 5,
  ntyp = 2,
  ecutwfc = 40.0,
  ecutrho = 320.0,
  occupations = 'smearing',
  smearing = 'gaussian',
  degauss = 0.01
/

&ELECTRONS
  conv_thr = 1.0d-8,
  mixing_beta = 0.7,
  electron_maxstep = 100
/

ATOMIC_SPECIES
 C  12.0107  C.pbe-n-kjpaw_psl.1.0.0.UPF
 H   1.00794 H.pbe-kjpaw_psl.1.0.0.UPF

ATOMIC_POSITIONS {angstrom}
 C  0.000000  0.000000  0.000000
 H  0.629118  0.629118  0.629118
 H -0.629118 -0.629118  0.629118
 H -0.629118  0.629118 -0.629118
 H  0.629118 -0.629118 -0.629118

K_POINTS {gamma}

CELL_PARAMETERS {angstrom}
  10.0  0.0  0.0
   0.0 10.0  0.0
   0.0  0.0 10.0
