&control
    calculation = 'nscf',
    prefix = 'silicon',
    pseudo_dir = './',
    outdir = './out',
/
&system
    ibrav = 2,
    celldm(1) = 10.260000,
    nat = 2,
    ntyp = 1,
    ecutwfc = 50.0,
    ecutrho = 400.0,
    occupations = 'smearing',
    smearing = 'methfessel-paxton',
    degauss = 0.02,
/
&electrons
    conv_thr = 1.0d-8,
/
ATOMIC_SPECIES
 Si  28.0855  Si.pbe-n-kjpaw_psl.1.0.0.UPF
ATOMIC_POSITIONS crystal
 Si 0.00 0.00 0.00
 Si 0.25 0.25 0.25
K_POINTS automatic
 12 12 12 0 0 0
