&CONTROL
  calculation = 'scf',
  prefix = 'o2',
  outdir = './tmp_1.4',
  pseudo_dir = './',
  verbosity = 'high',
/

&SYSTEM
  ibrav = 1,
  celldm(1) = 10.0,
  nat = 2,
  ntyp = 1,
  ecutwfc = 60.0,
  ecutrho = 240.0,
  occupations = 'smearing',
  smearing = 'gaussian',
  degauss = 0.01,
  nspin = 2,
  starting_magnetization(1) = 1.0,
/

&ELECTRONS
  conv_thr = 1.0d-8,
  mixing_beta = 0.7,
/

ATOMIC_SPECIES
  O  15.999  O.pbe-n-kjpaw_psl.1.0.0.UPF

ATOMIC_POSITIONS crystal
  O  0.0  0.0  0.632280
  O  0.0  0.0  0.367720

K_POINTS automatic
  1 1 1 0 0 0
