&control
    calculation = 'relax',
    prefix = 'nh3',
    outdir = './tmp/',
    pseudo_dir = './',
    verbosity = 'high'
/

&system
    ibrav = 1,
    celldm(1) = 20.0,
    nat = 4,
    ntyp = 2,
    ecutwfc = 50.0,
    ecutrho = 400.0
/

&electrons
    conv_thr = 1.0d-8,
    mixing_beta = 0.7
/

&ions
/

ATOMIC_SPECIES
N  14.007  N.pbe-n-kjpaw_psl.1.0.0.UPF
H   1.008  H.pbe-kjpaw_psl.1.0.0.UPF

ATOMIC_POSITIONS angstrom
N  0.000  0.000  0.000
H  0.000  0.937  0.381
H  0.812 -0.469  0.381
H -0.812 -0.469  0.381

K_POINTS automatic
1 1 1 0 0 0
